************************************************************************
file with basedata            : j9024_.bas
initial value random generator: 476555434
************************************************************************
projects                      :  1
jobs (incl. supersource/sink ):  92
horizon                       :  512
RESOURCES
  - renewable                 :  4   R
  - nonrenewable              :  0   N
  - doubly constrained        :  0   D
************************************************************************
PROJECT INFORMATION:
pronr.  #jobs rel.date duedate tardcost  MPM-Time
    1     90      0       88       22       88
************************************************************************
PRECEDENCE RELATIONS:
jobnr.    #modes  #successors   successors
   1        1          3           2   3   4
   2        1          3           5  17  79
   3        1          2          16  19
   4        1          3           6   7  10
   5        1          3          13  20  65
   6        1          3           8   9  18
   7        1          3          11  45  71
   8        1          3          21  72  80
   9        1          3          12  15  47
  10        1          2          41  48
  11        1          3          14  23  29
  12        1          3          50  52  73
  13        1          2          25  36
  14        1          2          26  44
  15        1          2          24  56
  16        1          2          30  32
  17        1          2          22  27
  18        1          2          30  68
  19        1          3          28  40  53
  20        1          3          22  24  35
  21        1          3          34  41  88
  22        1          1          44
  23        1          1          42
  24        1          1          37
  25        1          3          27  52  58
  26        1          2          60  90
  27        1          3          31  49  83
  28        1          2          39  41
  29        1          2          36  73
  30        1          3          38  58  81
  31        1          3          33  43  64
  32        1          1          38
  33        1          1          81
  34        1          1          75
  35        1          1          77
  36        1          2          62  91
  37        1          3          62  68  77
  38        1          1          63
  39        1          1          54
  40        1          1          51
  41        1          2          59  60
  42        1          1          46
  43        1          1          48
  44        1          1          61
  45        1          2          63  74
  46        1          1          81
  47        1          2          69  82
  48        1          1          61
  49        1          3          51  69  85
  50        1          1          59
  51        1          1          67
  52        1          2          55  64
  53        1          2          57  58
  54        1          1          67
  55        1          3          61  66  70
  56        1          1          72
  57        1          2          62  83
  58        1          3          59  78  82
  59        1          2          71  87
  60        1          2          70  75
  61        1          2          76  85
  62        1          1          85
  63        1          3          65  79  83
  64        1          3          67  68  74
  65        1          2          66  76
  66        1          3          69  84  86
  67        1          2          76  88
  68        1          2          71  89
  69        1          2          80  87
  70        1          1          77
  71        1          1          90
  72        1          2          73  75
  73        1          1          74
  74        1          1          82
  75        1          1          79
  76        1          2          78  80
  77        1          1          78
  78        1          1          86
  79        1          1          86
  80        1          1          90
  81        1          1          84
  82        1          1          84
  83        1          1          88
  84        1          1          87
  85        1          1          89
  86        1          1          89
  87        1          1          91
  88        1          1          91
  89        1          1          92
  90        1          1          92
  91        1          1          92
  92        1          0        
************************************************************************
REQUESTS/DURATIONS:
jobnr. mode duration  R 1  R 2  R 3  R 4
------------------------------------------------------------------------
  1      1     0       0    0    0    0
  2      1     8       4    3    0    0
  3      1     7       2    0    0    4
  4      1     7      10    3    0    1
  5      1     2       0    2    0    0
  6      1     6       6    5    3    6
  7      1     5       0    0    0    1
  8      1     6       0    0    0    5
  9      1    10       0    4    8    0
 10      1     6       4    0    7    0
 11      1     3       0    0    9    8
 12      1     9       1    0    0    2
 13      1     1       0    0    0    2
 14      1     6       3    0    5    0
 15      1    10       0   10    1    0
 16      1     1       0    8    0    8
 17      1     5      10    0    0    9
 18      1     8       0    0    6    2
 19      1     1       5    9    0    1
 20      1     9       5    0    0    7
 21      1     5       0    3    0   10
 22      1     7       0    0    3    0
 23      1     9       0    0    2    2
 24      1     7       0    6    3    0
 25      1     6       9    9   10    7
 26      1     2       7    0   10    3
 27      1     3       1    0    0    6
 28      1     4       4    3    0    6
 29      1     1       0    0    5    0
 30      1     8       0    0    1    0
 31      1     5       0    1    0    0
 32      1     1       0    4    0    8
 33      1     6       0    9    7    4
 34      1     1       9    0    5    2
 35      1     7       0    8    7    8
 36      1     7       3    3    0    0
 37      1     6       0    9    7    4
 38      1     1       0    1    6    8
 39      1    10       0    0    9    3
 40      1     9       0    0    3    7
 41      1     8       0    6    0    6
 42      1     8      10    0    6    0
 43      1    10       8    9    0    0
 44      1     2       0    0    1    0
 45      1    10       0    3    4    0
 46      1     6       0    7    8    0
 47      1    10       9    6    0    0
 48      1     4       7    3    0    9
 49      1     7       8    6    8    0
 50      1     4       0    6    1    0
 51      1     5       0    8    4    8
 52      1     3       0    0    0    8
 53      1     5       0    9    7    0
 54      1     1       4    0    0    3
 55      1     1       6    2    7   10
 56      1    10       7    1    3    0
 57      1     5       0    0    4    4
 58      1     4       5    0    9    0
 59      1    10       0    0    0    5
 60      1     9       8   10    0    5
 61      1     2       0    5   10    0
 62      1     7       0    4    0    5
 63      1     7       2    0    2    0
 64      1     1       0    0    5    0
 65      1     7       9    7    0    2
 66      1     4       0    0    4    8
 67      1     5       0    0    0    8
 68      1     4       5    0    0    0
 69      1    10       0    8    7    0
 70      1    10       7    5    0    0
 71      1     1       8    0    0    1
 72      1    10       0   10    0    8
 73      1     1       0    6    0    7
 74      1    10       5    0    2    0
 75      1     9       1    2    7    0
 76      1    10       1    0    0    0
 77      1     5       0    9    8    0
 78      1     1       4    0    4    7
 79      1     7       0    2    0    0
 80      1     5      10    0    0    6
 81      1     7       0    6    0    0
 82      1     6       0   10    0    6
 83      1     8       0   10    0    0
 84      1     9       3    0    0    0
 85      1     4       0   10    0    3
 86      1     5       2    0    0    1
 87      1     7       8    0    0    0
 88      1     4       3    0    0    2
 89      1     5       9    0    0    0
 90      1     2       0    8    0    0
 91      1     2       0    0    1    8
 92      1     0       0    0    0    0
************************************************************************
RESOURCEAVAILABILITIES:
  R 1  R 2  R 3  R 4
   38   54   56   47
************************************************************************
